c Generated map
c Size: 13 * 13, weights in range: 1 to 10, walls: False, with ratio 0.2
c dim 3 of 4
c
p sp 169 312
c graph contains 169 nodes and 312 arcs
c
a 1 14 8
a 14 1 8
a 1 2 5
a 2 1 5
a 2 15 8
a 15 2 8
a 2 3 8
a 3 2 8
a 3 16 10
a 16 3 10
a 3 4 5
a 4 3 5
a 4 17 9
a 17 4 9
a 4 5 9
a 5 4 9
a 5 18 1
a 18 5 1
a 5 6 4
a 6 5 4
a 6 19 3
a 19 6 3
a 6 7 9
a 7 6 9
a 7 20 3
a 20 7 3
a 7 8 10
a 8 7 10
a 8 21 5
a 21 8 5
a 8 9 1
a 9 8 1
a 9 22 6
a 22 9 6
a 9 10 6
a 10 9 6
a 10 23 4
a 23 10 4
a 10 11 4
a 11 10 4
a 11 24 3
a 24 11 3
a 11 12 9
a 12 11 9
a 12 25 7
a 25 12 7
a 12 13 1
a 13 12 1
a 13 26 8
a 26 13 8
a 14 27 6
a 27 14 6
a 14 15 3
a 15 14 3
a 15 28 1
a 28 15 1
a 15 16 5
a 16 15 5
a 16 29 4
a 29 16 4
a 16 17 3
a 17 16 3
a 17 30 9
a 30 17 9
a 17 18 2
a 18 17 2
a 18 31 7
a 31 18 7
a 18 19 7
a 19 18 7
a 19 32 7
a 32 19 7
a 19 20 2
a 20 19 2
a 20 33 6
a 33 20 6
a 20 21 9
a 21 20 9
a 21 34 1
a 34 21 1
a 21 22 8
a 22 21 8
a 22 35 6
a 35 22 6
a 22 23 2
a 23 22 2
a 23 36 9
a 36 23 9
a 23 24 7
a 24 23 7
a 24 37 4
a 37 24 4
a 24 25 6
a 25 24 6
a 25 38 9
a 38 25 9
a 25 26 3
a 26 25 3
a 26 39 2
a 39 26 2
a 27 40 5
a 40 27 5
a 27 28 7
a 28 27 7
a 28 41 1
a 41 28 1
a 28 29 9
a 29 28 9
a 29 42 10
a 42 29 10
a 29 30 9
a 30 29 9
a 30 43 9
a 43 30 9
a 30 31 3
a 31 30 3
a 31 44 9
a 44 31 9
a 31 32 4
a 32 31 4
a 32 45 1
a 45 32 1
a 32 33 7
a 33 32 7
a 33 46 6
a 46 33 6
a 33 34 8
a 34 33 8
a 34 47 5
a 47 34 5
a 34 35 9
a 35 34 9
a 35 48 6
a 48 35 6
a 35 36 10
a 36 35 10
a 36 49 10
a 49 36 10
a 36 37 10
a 37 36 10
a 37 50 2
a 50 37 2
a 37 38 10
a 38 37 10
a 38 51 8
a 51 38 8
a 38 39 7
a 39 38 7
a 39 52 1
a 52 39 1
a 40 53 6
a 53 40 6
a 40 41 3
a 41 40 3
a 41 54 8
a 54 41 8
a 41 42 2
a 42 41 2
a 42 55 9
a 55 42 9
a 42 43 10
a 43 42 10
a 43 56 2
a 56 43 2
a 43 44 5
a 44 43 5
a 44 57 4
a 57 44 4
a 44 45 5
a 45 44 5
a 45 58 7
a 58 45 7
a 45 46 9
a 46 45 9
a 46 59 5
a 59 46 5
a 46 47 7
a 47 46 7
a 47 60 6
a 60 47 6
a 47 48 2
a 48 47 2
a 48 61 8
a 61 48 8
a 48 49 4
a 49 48 4
a 49 62 7
a 62 49 7
a 49 50 7
a 50 49 7
a 50 63 8
a 63 50 8
a 50 51 6
a 51 50 6
a 51 64 4
a 64 51 4
a 51 52 1
a 52 51 1
a 52 65 4
a 65 52 4
a 53 66 1
a 66 53 1
a 53 54 7
a 54 53 7
a 54 67 7
a 67 54 7
a 54 55 1
a 55 54 1
a 55 68 10
a 68 55 10
a 55 56 1
a 56 55 1
a 56 69 8
a 69 56 8
a 56 57 4
a 57 56 4
a 57 70 2
a 70 57 2
a 57 58 2
a 58 57 2
a 58 71 8
a 71 58 8
a 58 59 6
a 59 58 6
a 59 72 8
a 72 59 8
a 59 60 8
a 60 59 8
a 60 73 7
a 73 60 7
a 60 61 6
a 61 60 6
a 61 74 5
a 74 61 5
a 61 62 9
a 62 61 9
a 62 75 3
a 75 62 3
a 62 63 6
a 63 62 6
a 63 76 9
a 76 63 9
a 63 64 8
a 64 63 8
a 64 77 6
a 77 64 6
a 64 65 8
a 65 64 8
a 65 78 6
a 78 65 6
a 66 79 8
a 79 66 8
a 66 67 5
a 67 66 5
a 67 80 8
a 80 67 8
a 67 68 4
a 68 67 4
a 68 81 8
a 81 68 8
a 68 69 3
a 69 68 3
a 69 82 2
a 82 69 2
a 69 70 10
a 70 69 10
a 70 83 7
a 83 70 7
a 70 71 5
a 71 70 5
a 71 84 2
a 84 71 2
a 71 72 7
a 72 71 7
a 72 85 10
a 85 72 10
a 72 73 5
a 73 72 5
a 73 86 10
a 86 73 10
a 73 74 1
a 74 73 1
a 74 87 6
a 87 74 6
a 74 75 6
a 75 74 6
a 75 88 1
a 88 75 1
a 75 76 5
a 76 75 5
a 76 89 1
a 89 76 1
a 76 77 8
a 77 76 8
a 77 90 2
a 90 77 2
a 77 78 6
a 78 77 6
a 78 91 1
a 91 78 1
a 79 92 8
a 92 79 8
a 79 80 6
a 80 79 6
a 80 93 1
a 93 80 1
a 80 81 7
a 81 80 7
a 81 94 2
a 94 81 2
a 81 82 4
a 82 81 4
a 82 95 1
a 95 82 1
a 82 83 4
a 83 82 4
a 83 96 1
a 96 83 1
a 83 84 3
a 84 83 3
a 84 97 3
a 97 84 3
a 84 85 6
a 85 84 6
a 85 98 1
a 98 85 1
a 85 86 10
a 86 85 10
a 86 99 10
a 99 86 10
a 86 87 3
a 87 86 3
a 87 100 3
a 100 87 3
a 87 88 6
a 88 87 6
a 88 101 8
a 101 88 8
a 88 89 7
a 89 88 7
a 89 102 5
a 102 89 5
a 89 90 4
a 90 89 4
a 90 103 4
a 103 90 4
a 90 91 10
a 91 90 10
a 91 104 2
a 104 91 2
a 92 105 1
a 105 92 1
a 92 93 6
a 93 92 6
a 93 106 4
a 106 93 4
a 93 94 4
a 94 93 4
a 94 107 9
a 107 94 9
a 94 95 9
a 95 94 9
a 95 108 3
a 108 95 3
a 95 96 6
a 96 95 6
a 96 109 9
a 109 96 9
a 96 97 2
a 97 96 2
a 97 110 10
a 110 97 10
a 97 98 9
a 98 97 9
a 98 111 5
a 111 98 5
a 98 99 9
a 99 98 9
a 99 112 5
a 112 99 5
a 99 100 2
a 100 99 2
a 100 113 9
a 113 100 9
a 100 101 1
a 101 100 1
a 101 114 7
a 114 101 7
a 101 102 3
a 102 101 3
a 102 115 4
a 115 102 4
a 102 103 5
a 103 102 5
a 103 116 1
a 116 103 1
a 103 104 1
a 104 103 1
a 104 117 1
a 117 104 1
a 105 118 8
a 118 105 8
a 105 106 4
a 106 105 4
a 106 119 2
a 119 106 2
a 106 107 2
a 107 106 2
a 107 120 3
a 120 107 3
a 107 108 2
a 108 107 2
a 108 121 6
a 121 108 6
a 108 109 1
a 109 108 1
a 109 122 10
a 122 109 10
a 109 110 9
a 110 109 9
a 110 123 1
a 123 110 1
a 110 111 4
a 111 110 4
a 111 124 5
a 124 111 5
a 111 112 1
a 112 111 1
a 112 125 3
a 125 112 3
a 112 113 9
a 113 112 9
a 113 126 4
a 126 113 4
a 113 114 8
a 114 113 8
a 114 127 10
a 127 114 10
a 114 115 6
a 115 114 6
a 115 128 3
a 128 115 3
a 115 116 10
a 116 115 10
a 116 129 6
a 129 116 6
a 116 117 5
a 117 116 5
a 117 130 8
a 130 117 8
a 118 131 4
a 131 118 4
a 118 119 5
a 119 118 5
a 119 132 6
a 132 119 6
a 119 120 10
a 120 119 10
a 120 133 1
a 133 120 1
a 120 121 1
a 121 120 1
a 121 134 3
a 134 121 3
a 121 122 8
a 122 121 8
a 122 135 1
a 135 122 1
a 122 123 10
a 123 122 10
a 123 136 4
a 136 123 4
a 123 124 6
a 124 123 6
a 124 137 10
a 137 124 10
a 124 125 7
a 125 124 7
a 125 138 3
a 138 125 3
a 125 126 7
a 126 125 7
a 126 139 5
a 139 126 5
a 126 127 6
a 127 126 6
a 127 140 1
a 140 127 1
a 127 128 5
a 128 127 5
a 128 141 10
a 141 128 10
a 128 129 6
a 129 128 6
a 129 142 7
a 142 129 7
a 129 130 10
a 130 129 10
a 130 143 3
a 143 130 3
a 131 144 2
a 144 131 2
a 131 132 8
a 132 131 8
a 132 145 9
a 145 132 9
a 132 133 6
a 133 132 6
a 133 146 3
a 146 133 3
a 133 134 8
a 134 133 8
a 134 147 10
a 147 134 10
a 134 135 9
a 135 134 9
a 135 148 9
a 148 135 9
a 135 136 5
a 136 135 5
a 136 149 5
a 149 136 5
a 136 137 6
a 137 136 6
a 137 150 9
a 150 137 9
a 137 138 7
a 138 137 7
a 138 151 3
a 151 138 3
a 138 139 1
a 139 138 1
a 139 152 2
a 152 139 2
a 139 140 1
a 140 139 1
a 140 153 10
a 153 140 10
a 140 141 2
a 141 140 2
a 141 154 2
a 154 141 2
a 141 142 10
a 142 141 10
a 142 155 2
a 155 142 2
a 142 143 8
a 143 142 8
a 143 156 7
a 156 143 7
a 144 157 10
a 157 144 10
a 144 145 3
a 145 144 3
a 145 158 7
a 158 145 7
a 145 146 7
a 146 145 7
a 146 159 1
a 159 146 1
a 146 147 2
a 147 146 2
a 147 160 10
a 160 147 10
a 147 148 6
a 148 147 6
a 148 161 9
a 161 148 9
a 148 149 6
a 149 148 6
a 149 162 5
a 162 149 5
a 149 150 9
a 150 149 9
a 150 163 4
a 163 150 4
a 150 151 1
a 151 150 1
a 151 164 3
a 164 151 3
a 151 152 6
a 152 151 6
a 152 165 10
a 165 152 10
a 152 153 2
a 153 152 2
a 153 166 5
a 166 153 5
a 153 154 5
a 154 153 5
a 154 167 3
a 167 154 3
a 154 155 8
a 155 154 8
a 155 168 2
a 168 155 2
a 155 156 4
a 156 155 4
a 156 169 1
a 169 156 1
a 157 158 7
a 158 157 7
a 158 159 7
a 159 158 7
a 159 160 6
a 160 159 6
a 160 161 3
a 161 160 3
a 161 162 1
a 162 161 1
a 162 163 7
a 163 162 7
a 163 164 5
a 164 163 5
a 164 165 10
a 165 164 10
a 165 166 9
a 166 165 9
a 166 167 6
a 167 166 6
a 167 168 9
a 168 167 9
a 168 169 5
a 169 168 5
